21° run output:
{
    "Function": "euclidB300.tsp",
    "Problem dimension": [
        7,
        174,
        213,
        266,
        158,
        133,
        198,
        256,
        66,
        136,
        234,
        177,
        239,
        116,
        50,
        61,
        105,
        83,
        1,
        154,
        16,
        147,
        245,
        267,
        204,
        41,
        255,
        49,
        166,
        40,
        283,
        220,
        295,
        29,
        216,
        251,
        70,
        63,
        104,
        26,
        27,
        280,
        12,
        228,
        205,
        263,
        46,
        232,
        273,
        17,
        192,
        217,
        199,
        258,
        173,
        249,
        112,
        87,
        91,
        268,
        122,
        65,
        148,
        77,
        69,
        97,
        139,
        6,
        162,
        182,
        223,
        277,
        191,
        92,
        53,
        20,
        169,
        282,
        252,
        207,
        56,
        250,
        291,
        132,
        269,
        140,
        274,
        101,
        60,
        58,
        128,
        34,
        78,
        37,
        85,
        218,
        36,
        189,
        209,
        99,
        244,
        233,
        290,
        262,
        195,
        278,
        293,
        127,
        98,
        141,
        39,
        115,
        33,
        227,
        14,
        265,
        259,
        18,
        102,
        181,
        288,
        219,
        15,
        131,
        211,
        152,
        237,
        135,
        238,
        188,
        178,
        73,
        298,
        156,
        264,
        292,
        145,
        222,
        13,
        123,
        113,
        179,
        42,
        96,
        79,
        32,
        0,
        54,
        80,
        153,
        25,
        55,
        88,
        168,
        297,
        275,
        230,
        111,
        253,
        9,
        229,
        286,
        180,
        225,
        8,
        151,
        170,
        197,
        24,
        187,
        272,
        44,
        82,
        221,
        155,
        161,
        241,
        30,
        248,
        150,
        48,
        38,
        201,
        2,
        89,
        81,
        144,
        68,
        130,
        90,
        138,
        74,
        284,
        119,
        109,
        163,
        125,
        72,
        129,
        193,
        171,
        67,
        76,
        100,
        121,
        184,
        22,
        106,
        146,
        21,
        287,
        107,
        75,
        117,
        10,
        196,
        279,
        84,
        172,
        208,
        143,
        124,
        86,
        254,
        103,
        62,
        236,
        212,
        226,
        165,
        51,
        23,
        31,
        202,
        294,
        270,
        164,
        94,
        299,
        57,
        43,
        45,
        19,
        167,
        35,
        149,
        4,
        231,
        185,
        64,
        5,
        160,
        71,
        142,
        93,
        260,
        118,
        242,
        194,
        114,
        137,
        276,
        281,
        243,
        59,
        159,
        214,
        203,
        52,
        235,
        289,
        95,
        215,
        271,
        176,
        120,
        3,
        134,
        247,
        47,
        110,
        285,
        108,
        246,
        257,
        190,
        11,
        210,
        186,
        157,
        206,
        175,
        224,
        296,
        200,
        183,
        126,
        28,
        240,
        261
    ],
    "Global Optimum": 0,
    "Algorithm": "Genetic algorithm",
    "Parameters": {
        "population": 30,
        "offspring": 30,
        "mutation probability": 0.0033333333333333335,
        "crossover probability": 0.9
    },
    "Fitness": 292759,
    "Solution": [
        7,
        174,
        213,
        266,
        158,
        133,
        198,
        256,
        66,
        136,
        234,
        177,
        239,
        116,
        50,
        61,
        105,
        83,
        1,
        154,
        16,
        147,
        245,
        267,
        204,
        41,
        255,
        49,
        166,
        40,
        283,
        220,
        295,
        29,
        216,
        251,
        70,
        63,
        104,
        26,
        27,
        280,
        12,
        228,
        205,
        263,
        46,
        232,
        273,
        17,
        192,
        217,
        199,
        258,
        173,
        249,
        112,
        87,
        91,
        268,
        122,
        65,
        148,
        77,
        69,
        97,
        139,
        6,
        162,
        182,
        223,
        277,
        191,
        92,
        53,
        20,
        169,
        282,
        252,
        207,
        56,
        250,
        291,
        132,
        269,
        140,
        274,
        101,
        60,
        58,
        128,
        34,
        78,
        37,
        85,
        218,
        36,
        189,
        209,
        99,
        244,
        233,
        290,
        262,
        195,
        278,
        293,
        127,
        98,
        141,
        39,
        115,
        33,
        227,
        14,
        265,
        259,
        18,
        102,
        181,
        288,
        219,
        15,
        131,
        211,
        152,
        237,
        135,
        238,
        188,
        178,
        73,
        298,
        156,
        264,
        292,
        145,
        222,
        13,
        123,
        113,
        179,
        42,
        96,
        79,
        32,
        0,
        54,
        80,
        153,
        25,
        55,
        88,
        168,
        297,
        275,
        230,
        111,
        253,
        9,
        229,
        286,
        180,
        225,
        8,
        151,
        170,
        197,
        24,
        187,
        272,
        44,
        82,
        221,
        155,
        161,
        241,
        30,
        248,
        150,
        48,
        38,
        201,
        2,
        89,
        81,
        144,
        68,
        130,
        90,
        138,
        74,
        284,
        119,
        109,
        163,
        125,
        72,
        129,
        193,
        171,
        67,
        76,
        100,
        121,
        184,
        22,
        106,
        146,
        21,
        287,
        107,
        75,
        117,
        10,
        196,
        279,
        84,
        172,
        208,
        143,
        124,
        86,
        254,
        103,
        62,
        236,
        212,
        226,
        165,
        51,
        23,
        31,
        202,
        294,
        270,
        164,
        94,
        299,
        57,
        43,
        45,
        19,
        167,
        35,
        149,
        4,
        231,
        185,
        64,
        5,
        160,
        71,
        142,
        93,
        260,
        118,
        242,
        194,
        114,
        137,
        276,
        281,
        243,
        59,
        159,
        214,
        203,
        52,
        235,
        289,
        95,
        215,
        271,
        176,
        120,
        3,
        134,
        247,
        47,
        110,
        285,
        108,
        246,
        257,
        190,
        11,
        210,
        186,
        157,
        206,
        175,
        224,
        296,
        200,
        183,
        126,
        28,
        240,
        261
    ],
    "Nb of functions evaluations": 200010,
    "Computational time in seconds": 439.34546518325806,
    "Stopping criterion in evaluations": 200000
}